c description: Subset cardinality formula for fast_gnp_random_graph(6,8,0.8)
c generator: CNFgen (0.9.0)
c copyright: (C) 2012-2020 Massimo Lauria <massimo.lauria@uniroma1.it>
c url: https://massimolauria.net/cnfgen
c
p cnf 38 263
1 2 3 0
1 2 4 0
1 3 4 0
2 3 4 0
5 6 7 8 0
5 6 7 9 0
5 6 7 10 0
5 6 8 9 0
5 6 8 10 0
5 6 9 10 0
5 7 8 9 0
5 7 8 10 0
5 7 9 10 0
5 8 9 10 0
6 7 8 9 0
6 7 8 10 0
6 7 9 10 0
6 8 9 10 0
7 8 9 10 0
11 12 13 14 15 0
11 12 13 14 16 0
11 12 13 14 17 0
11 12 13 14 18 0
11 12 13 15 16 0
11 12 13 15 17 0
11 12 13 15 18 0
11 12 13 16 17 0
11 12 13 16 18 0
11 12 13 17 18 0
11 12 14 15 16 0
11 12 14 15 17 0
11 12 14 15 18 0
11 12 14 16 17 0
11 12 14 16 18 0
11 12 14 17 18 0
11 12 15 16 17 0
11 12 15 16 18 0
11 12 15 17 18 0
11 12 16 17 18 0
11 13 14 15 16 0
11 13 14 15 17 0
11 13 14 15 18 0
11 13 14 16 17 0
11 13 14 16 18 0
11 13 14 17 18 0
11 13 15 16 17 0
11 13 15 16 18 0
11 13 15 17 18 0
11 13 16 17 18 0
11 14 15 16 17 0
11 14 15 16 18 0
11 14 15 17 18 0
11 14 16 17 18 0
11 15 16 17 18 0
12 13 14 15 16 0
12 13 14 15 17 0
12 13 14 15 18 0
12 13 14 16 17 0
12 13 14 16 18 0
12 13 14 17 18 0
12 13 15 16 17 0
12 13 15 16 18 0
12 13 15 17 18 0
12 13 16 17 18 0
12 14 15 16 17 0
12 14 15 16 18 0
12 14 15 17 18 0
12 14 16 17 18 0
12 15 16 17 18 0
13 14 15 16 17 0
13 14 15 16 18 0
13 14 15 17 18 0
13 14 16 17 18 0
13 15 16 17 18 0
14 15 16 17 18 0
19 20 21 22 23 0
19 20 21 22 24 0
19 20 21 22 25 0
19 20 21 22 26 0
19 20 21 23 24 0
19 20 21 23 25 0
19 20 21 23 26 0
19 20 21 24 25 0
19 20 21 24 26 0
19 20 21 25 26 0
19 20 22 23 24 0
19 20 22 23 25 0
19 20 22 23 26 0
19 20 22 24 25 0
19 20 22 24 26 0
19 20 22 25 26 0
19 20 23 24 25 0
19 20 23 24 26 0
19 20 23 25 26 0
19 20 24 25 26 0
19 21 22 23 24 0
19 21 22 23 25 0
19 21 22 23 26 0
19 21 22 24 25 0
19 21 22 24 26 0
19 21 22 25 26 0
19 21 23 24 25 0
19 21 23 24 26 0
19 21 23 25 26 0
19 21 24 25 26 0
19 22 23 24 25 0
19 22 23 24 26 0
19 22 23 25 26 0
19 22 24 25 26 0
19 23 24 25 26 0
20 21 22 23 24 0
20 21 22 23 25 0
20 21 22 23 26 0
20 21 22 24 25 0
20 21 22 24 26 0
20 21 22 25 26 0
20 21 23 24 25 0
20 21 23 24 26 0
20 21 23 25 26 0
20 21 24 25 26 0
20 22 23 24 25 0
20 22 23 24 26 0
20 22 23 25 26 0
20 22 24 25 26 0
20 23 24 25 26 0
21 22 23 24 25 0
21 22 23 24 26 0
21 22 23 25 26 0
21 22 24 25 26 0
21 23 24 25 26 0
22 23 24 25 26 0
27 28 29 30 31 0
27 28 29 30 32 0
27 28 29 30 33 0
27 28 29 30 34 0
27 28 29 31 32 0
27 28 29 31 33 0
27 28 29 31 34 0
27 28 29 32 33 0
27 28 29 32 34 0
27 28 29 33 34 0
27 28 30 31 32 0
27 28 30 31 33 0
27 28 30 31 34 0
27 28 30 32 33 0
27 28 30 32 34 0
27 28 30 33 34 0
27 28 31 32 33 0
27 28 31 32 34 0
27 28 31 33 34 0
27 28 32 33 34 0
27 29 30 31 32 0
27 29 30 31 33 0
27 29 30 31 34 0
27 29 30 32 33 0
27 29 30 32 34 0
27 29 30 33 34 0
27 29 31 32 33 0
27 29 31 32 34 0
27 29 31 33 34 0
27 29 32 33 34 0
27 30 31 32 33 0
27 30 31 32 34 0
27 30 31 33 34 0
27 30 32 33 34 0
27 31 32 33 34 0
28 29 30 31 32 0
28 29 30 31 33 0
28 29 30 31 34 0
28 29 30 32 33 0
28 29 30 32 34 0
28 29 30 33 34 0
28 29 31 32 33 0
28 29 31 32 34 0
28 29 31 33 34 0
28 29 32 33 34 0
28 30 31 32 33 0
28 30 31 32 34 0
28 30 31 33 34 0
28 30 32 33 34 0
28 31 32 33 34 0
29 30 31 32 33 0
29 30 31 32 34 0
29 30 31 33 34 0
29 30 32 33 34 0
29 31 32 33 34 0
30 31 32 33 34 0
35 36 37 0
35 36 38 0
35 37 38 0
36 37 38 0
-5 -11 -19 0
-5 -11 -27 0
-5 -11 -35 0
-5 -19 -27 0
-5 -19 -35 0
-5 -27 -35 0
-11 -19 -27 0
-11 -19 -35 0
-11 -27 -35 0
-19 -27 -35 0
-1 -6 -12 0
-1 -6 -20 0
-1 -6 -28 0
-1 -12 -20 0
-1 -12 -28 0
-1 -20 -28 0
-6 -12 -20 0
-6 -12 -28 0
-6 -20 -28 0
-12 -20 -28 0
-13 -21 -29 0
-13 -21 -36 0
-13 -29 -36 0
-21 -29 -36 0
-2 -7 -14 0
-2 -7 -22 0
-2 -7 -30 0
-2 -14 -22 0
-2 -14 -30 0
-2 -22 -30 0
-7 -14 -22 0
-7 -14 -30 0
-7 -22 -30 0
-14 -22 -30 0
-3 -8 -15 -23 0
-3 -8 -15 -31 0
-3 -8 -15 -37 0
-3 -8 -23 -31 0
-3 -8 -23 -37 0
-3 -8 -31 -37 0
-3 -15 -23 -31 0
-3 -15 -23 -37 0
-3 -15 -31 -37 0
-3 -23 -31 -37 0
-8 -15 -23 -31 0
-8 -15 -23 -37 0
-8 -15 -31 -37 0
-8 -23 -31 -37 0
-15 -23 -31 -37 0
-16 -24 0
-16 -32 0
-24 -32 0
-9 -17 -25 0
-9 -17 -33 0
-9 -17 -38 0
-9 -25 -33 0
-9 -25 -38 0
-9 -33 -38 0
-17 -25 -33 0
-17 -25 -38 0
-17 -33 -38 0
-25 -33 -38 0
-4 -10 -18 0
-4 -10 -26 0
-4 -10 -34 0
-4 -18 -26 0
-4 -18 -34 0
-4 -26 -34 0
-10 -18 -26 0
-10 -18 -34 0
-10 -26 -34 0
-18 -26 -34 0